c Sudoku solution
p cnf 729 0
122 0
138 0
165 0
214 0
241 0
363 0
444 0
478 0
485 0
542 0
611 0
657 0
693 0
717 0
759 0
784 0
819 0
828 0
518 0
845 0
555 0
453 0
896 0
915 0
412 0
113 0
316 0
926 0
962 0
864 0
851 0
958 0
947 0
743 0
766 0
721 0
732 0
775 0
798 0
833 0
934 0
331 0
523 0
624 0
635 0
267 0
239 0
327 0
225 0
429 0
348 0
149 0
646 0
461 0
569 0
668 0
497 0
436 0
537 0
395 0
288 0
273 0
292 0
389 0
374 0
154 0
352 0
256 0
983 0
594 0
682 0
679 0
872 0
887 0
177 0
186 0
191 0
576 0
581 0
971 0
999 0
